n_res = 4;
rcap = [32, 29, 180, 173];
rtype = [1, 1, 2, 2];
n_tasks = 30;
modes = [ {1, 2, 3}, {4, 5, 6}, {7, 8, 9}, {10, 11, 12}, {13, 14, 15}, {16, 17, 18}, {19, 20, 21}, {22, 23, 24}, {25, 26, 27}, {28, 29, 30}, {31, 32, 33}, {34, 35, 36}, {37, 38, 39}, {40, 41, 42}, {43, 44, 45}, {46, 47, 48}, {49, 50, 51}, {52, 53, 54}, {55, 56, 57}, {58, 59, 60}, {61, 62, 63}, {64, 65, 66}, {67, 68, 69}, {70, 71, 72}, {73, 74, 75}, {76, 77, 78}, {79, 80, 81}, {82, 83, 84}, {85, 86, 87}, {88, 89, 90} ];
succ = [ {4, 6}, {13, 14, 22}, {5, 6, 17}, {7, 9, 10}, {8, 15, 20}, {16, 20, 23}, {11, 21, 26}, {12, 24, 28}, {13}, {12, 18, 30}, {14, 27}, {26}, {26}, {25}, {16, 18, 25}, {28}, {18, 19, 21}, {28}, {23, 27}, {21, 22}, {27, 29}, {25}, {24}, {29}, {30}, {29}, {30}, {}, {}, {} ];
n_opt = 90;
dur = [1, 4, 10, 2, 4, 4, 3, 3, 7, 2, 3, 3, 7, 7, 8, 8, 9, 10, 1, 6, 8, 1, 3, 8, 3, 7, 10, 4, 6, 8, 4, 7, 10, 2, 8, 10, 3, 3, 5, 3, 5, 9, 3, 4, 8, 2, 7, 7, 6, 7, 8, 2, 6, 6, 3, 9, 10, 1, 3, 9, 5, 6, 8, 1, 3, 5, 4, 8, 10, 1, 2, 2, 7, 9, 10, 3, 4, 7, 1, 9, 10, 5, 9, 10, 1, 9, 10, 1, 4, 9];
rreq = [|  7,  6,  6,  9,  7,  8,  3,  3,  3,  5,  3,  4,  6,  7,  6,  4,  4,  3,  4,  2,  1,  8,  7,  4,  4,  4,  1,  7,  4,  2,  6,  5,  4,  7,  5,  3, 10,  9,  8,  5,  5,  4,  6,  5,  4,  7,  2,  4,  6,  6,  1,  5,  5,  5,  6,  6,  2,  6,  3,  2,  4,  3,  3,  7,  6,  1,  9,  7,  7,  4,  2,  1,  8,  6,  5,  7,  4,  2,  4,  4,  1,  8,  5,  4,  9,  7,  7,  8,  6,  5
        | 10,  9,  8, 10, 10, 10,  9,  6,  6,  6,  5,  4,  6,  5,  4,  4,  4,  3,  6,  4,  4,  7,  6,  6,  5,  4,  4,  8,  7,  6,  2,  1,  1,  6,  4,  2,  8,  9,  7,  7,  6,  5,  7,  6,  5,  8,  6,  3,  4,  4,  2,  5,  2,  3,  9,  6,  1,  8,  6,  5,  5,  4,  1,  7,  3,  2,  7,  7,  7,  5,  3,  4,  6,  5,  5,  4,  3,  3,  8,  6,  6,  7,  6,  6,  4,  4,  3,  3,  3,  3
        |  9,  8,  7,  7,  7,  7,  7,  8,  3,  3,  3,  3,  7,  8,  7,  9,  6,  4,  8,  5,  1,  7,  6,  5,  5,  5,  3,  5,  2,  1,  9,  9,  9,  8,  6,  4,  6,  7,  5,  9,  9,  8,  8,  7,  2,  8,  7,  7,  7,  7,  7,  8,  8,  7,  9,  9,  7,  8,  8,  7,  8,  6,  4,  8,  6,  1,  7,  4,  3,  6,  6,  5,  5,  5,  4,  5,  3,  2, 10,  8,  8,  8,  8,  6,  6,  6,  3,  5,  3,  1
        | 10,  7,  7, 10, 10,  9,  2,  2,  2,  7,  4,  2,  6,  5,  5, 10,  9,  9,  9,  9,  8,  8,  6,  2,  6,  5,  2, 10,  5,  4,  8,  7,  6,  7,  6,  6,  7,  7,  7,  5,  5,  5,  4,  4,  2,  5,  5,  5, 10,  5,  3,  5,  3,  3,  4,  3,  3,  6,  4,  3,  6,  6,  2,  7,  5,  4,  7,  4,  1,  9,  8,  6,  8,  6,  5,  6,  6,  6,  5,  5,  4,  7,  6,  3, 10,  9,  9,  5,  4,  4 |];
